benchmark/results/graph__10-1000-0.10-04_3/graph__10-1000-0.10-04_3_Quinton_Benders_sub.lp
\ This file has been generated by DOcplex
\ ENCODING=ISO-8859-1
\Problem name: Quinton Benders_dual_sub

Minimize
 obj: 0.002169197397 pi_nr_a0 + 0.001517450683 pi_nr_a1
      + 0.001464128843 pi_nr_a2 + 0.001355013550 pi_nr_a3
      + 0.001236093943 pi_nr_a4 + 0.001156069364 pi_nr_a5
      + 0.001453488372 pi_nr_a6 + 0.001683501684 pi_nr_a7
      + 0.001328021248 pi_nr_a8 + 0.001321003963 pi_nr_a9 + pi_p_a0_a1
      + pi_p_a3_a7 + pi_p_a8_a2 + pi_p_a3_a1 + pi_p_a0_a6 + pi_p_a9_a9
      + pi_p_a1_a7 + 2579 pi_d_a0_a1_proc_2 + 2579 pi_d_a0_a1_proc_3
      + 3868 pi_d_a0_a1_proc_1 + 1289 pi_d_a1_a0_proc_1 + 3867 pi_d_a0_a2_proc_2
      + 2578 pi_d_a0_a2_proc_3 + 2578 pi_d_a0_a2_proc_0 + 3867 pi_d_a0_a2_proc_1
      + 1290 pi_d_a2_a0_proc_2 + pi_d_a2_a0_proc_3 + pi_d_a2_a0_proc_0
      + 1290 pi_d_a2_a0_proc_1 + 2578 pi_d_a0_a3_proc_1 + pi_d_a3_a0_proc_3
      + 2579 pi_d_a3_a0_proc_1 + 2578 pi_d_a0_a4_proc_2 + 2578 pi_d_a0_a4_proc_3
      + 3867 pi_d_a0_a4_proc_0 + 3867 pi_d_a0_a4_proc_1 + pi_d_a4_a0_proc_2
      + pi_d_a4_a0_proc_3 + 1290 pi_d_a4_a0_proc_0 + 1290 pi_d_a4_a0_proc_1
      + 2578 pi_d_a0_a5_proc_2 + 3867 pi_d_a0_a5_proc_0 + 3867 pi_d_a0_a5_proc_1
      + pi_d_a5_a0_proc_2 + 1290 pi_d_a5_a0_proc_0 + 1290 pi_d_a5_a0_proc_1
      + 2579 pi_d_a0_a6_proc_2 + pi_d_a0_a6_proc_3 + 2579 pi_d_a0_a6_proc_0
      + 2579 pi_d_a0_a6_proc_1 + 2578 pi_d_a6_a0_proc_2 + 2578 pi_d_a6_a0_proc_0
      + 2578 pi_d_a6_a0_proc_1 + 2579 pi_d_a0_a7_proc_2 + 1290 pi_d_a0_a7_proc_3
      + 1290 pi_d_a0_a7_proc_1 + 2578 pi_d_a7_a0_proc_2 + 1289 pi_d_a7_a0_proc_3
      + 1289 pi_d_a7_a0_proc_1 + 3868 pi_d_a0_a8_proc_2 + 2579 pi_d_a0_a8_proc_3
      + 3868 pi_d_a0_a8_proc_0 + 2579 pi_d_a0_a8_proc_1 + 1289 pi_d_a8_a0_proc_2
      + 1289 pi_d_a8_a0_proc_0 + 3868 pi_d_a0_a9_proc_2 + 2579 pi_d_a0_a9_proc_3
      + 2579 pi_d_a0_a9_proc_0 + 3868 pi_d_a0_a9_proc_1 + 1289 pi_d_a9_a0_proc_2
      + 1289 pi_d_a9_a0_proc_1 + 2578 pi_d_a1_a2_proc_2 + 3867 pi_d_a1_a2_proc_3
      + 3867 pi_d_a1_a2_proc_1 + pi_d_a2_a1_proc_2 + 1290 pi_d_a2_a1_proc_3
      + 1290 pi_d_a2_a1_proc_1 + 2578 pi_d_a1_a3_proc_3 + 3867 pi_d_a1_a3_proc_1
      + pi_d_a3_a1_proc_3 + 1290 pi_d_a3_a1_proc_1 + 2578 pi_d_a1_a4_proc_3
      + 2578 pi_d_a1_a4_proc_1 + pi_d_a4_a1_proc_2 + 2579 pi_d_a4_a1_proc_3
      + 2579 pi_d_a4_a1_proc_1 + 2578 pi_d_a1_a5_proc_1 + pi_d_a5_a1_proc_2
      + 2579 pi_d_a5_a1_proc_1 + 2578 pi_d_a1_a6_proc_2 + 2578 pi_d_a1_a6_proc_3
      + 3867 pi_d_a1_a6_proc_1 + pi_d_a6_a1_proc_2 + pi_d_a6_a1_proc_3
      + 1290 pi_d_a6_a1_proc_1 + 2578 pi_d_a1_a7_proc_2 + 3867 pi_d_a1_a7_proc_3
      + 2578 pi_d_a1_a7_proc_1 + pi_d_a7_a1_proc_2 + 1290 pi_d_a7_a1_proc_3
      + pi_d_a7_a1_proc_1 + 2578 pi_d_a1_a8_proc_2 + 3867 pi_d_a1_a8_proc_3
      + 2578 pi_d_a1_a8_proc_1 + pi_d_a8_a1_proc_2 + 1290 pi_d_a8_a1_proc_3
      + pi_d_a8_a1_proc_1 + 2578 pi_d_a1_a9_proc_2 + 3867 pi_d_a1_a9_proc_3
      + 3867 pi_d_a1_a9_proc_1 + pi_d_a9_a1_proc_2 + 1290 pi_d_a9_a1_proc_3
      + 1290 pi_d_a9_a1_proc_1 + 2578 pi_d_a2_a3_proc_3 + 3867 pi_d_a2_a3_proc_1
      + pi_d_a3_a2_proc_3 + 1290 pi_d_a3_a2_proc_1 + 2578 pi_d_a2_a4_proc_2
      + 3867 pi_d_a2_a4_proc_3 + 2578 pi_d_a2_a4_proc_0 + 3867 pi_d_a2_a4_proc_1
      + pi_d_a4_a2_proc_2 + 1290 pi_d_a4_a2_proc_3 + pi_d_a4_a2_proc_0
      + 1290 pi_d_a4_a2_proc_1 + 1289 pi_d_a2_a5_proc_1 + 2579 pi_d_a5_a2_proc_2
      + 2579 pi_d_a5_a2_proc_0 + 3868 pi_d_a5_a2_proc_1 + 1290 pi_d_a2_a6_proc_2
      + pi_d_a2_a6_proc_3 + pi_d_a2_a6_proc_0 + 1290 pi_d_a2_a6_proc_1
      + 3867 pi_d_a6_a2_proc_2 + 2578 pi_d_a6_a2_proc_3 + 2578 pi_d_a6_a2_proc_0
      + 3867 pi_d_a6_a2_proc_1 + 3868 pi_d_a2_a7_proc_2 + 3868 pi_d_a2_a7_proc_3
      + 2579 pi_d_a2_a7_proc_1 + 1289 pi_d_a7_a2_proc_2 + 1289 pi_d_a7_a2_proc_3
      + 3868 pi_d_a2_a8_proc_2 + 3868 pi_d_a2_a8_proc_3 + 2579 pi_d_a2_a8_proc_0
      + 2579 pi_d_a2_a8_proc_1 + 1289 pi_d_a8_a2_proc_2 + 1289 pi_d_a8_a2_proc_3
      + 2579 pi_d_a2_a9_proc_2 + 2579 pi_d_a2_a9_proc_3 + pi_d_a2_a9_proc_0
      + 2579 pi_d_a2_a9_proc_1 + 2578 pi_d_a9_a2_proc_2 + 2578 pi_d_a9_a2_proc_3
      + 2578 pi_d_a9_a2_proc_1 + 2579 pi_d_a3_a4_proc_3 + 3868 pi_d_a3_a4_proc_1
      + 1289 pi_d_a4_a3_proc_1 + 5156 pi_d_a3_a5_proc_1 + pi_d_a5_a3_proc_1
      + pi_d_a3_a6_proc_3 + 2579 pi_d_a3_a6_proc_1 + 2578 pi_d_a6_a3_proc_1
      + 1290 pi_d_a3_a7_proc_3 + 1290 pi_d_a3_a7_proc_1 + 1289 pi_d_a7_a3_proc_3
      + 1289 pi_d_a7_a3_proc_1 + 2579 pi_d_a3_a8_proc_3 + 2579 pi_d_a3_a8_proc_1
      + 2579 pi_d_a3_a9_proc_3 + 3868 pi_d_a3_a9_proc_1 + 1289 pi_d_a9_a3_proc_1
      + 2578 pi_d_a4_a5_proc_0 + 2578 pi_d_a4_a5_proc_1 + pi_d_a5_a4_proc_2
      + 2579 pi_d_a5_a4_proc_0 + 2579 pi_d_a5_a4_proc_1 + 2579 pi_d_a4_a6_proc_2
      + 2579 pi_d_a4_a6_proc_3 + 3868 pi_d_a4_a6_proc_0 + 3868 pi_d_a4_a6_proc_1
      + 1289 pi_d_a6_a4_proc_0 + 1289 pi_d_a6_a4_proc_1 + 2579 pi_d_a4_a7_proc_2
      + 3868 pi_d_a4_a7_proc_3 + 2579 pi_d_a4_a7_proc_1 + 1289 pi_d_a7_a4_proc_3
      + 2579 pi_d_a4_a8_proc_2 + 3868 pi_d_a4_a8_proc_3 + 3868 pi_d_a4_a8_proc_0
      + 2579 pi_d_a4_a8_proc_1 + 1289 pi_d_a8_a4_proc_3 + 1289 pi_d_a8_a4_proc_0
      + 2579 pi_d_a4_a9_proc_2 + 3868 pi_d_a4_a9_proc_3 + 2579 pi_d_a4_a9_proc_0
      + 3868 pi_d_a4_a9_proc_1 + 1289 pi_d_a9_a4_proc_3 + 1289 pi_d_a9_a4_proc_1
      + 2579 pi_d_a5_a6_proc_2 + 3868 pi_d_a5_a6_proc_0 + 3868 pi_d_a5_a6_proc_1
      + 1289 pi_d_a6_a5_proc_0 + 1289 pi_d_a6_a5_proc_1 + 2579 pi_d_a5_a7_proc_2
      + 2579 pi_d_a5_a7_proc_1 + 2579 pi_d_a5_a8_proc_2 + 3868 pi_d_a5_a8_proc_0
      + 2579 pi_d_a5_a8_proc_1 + 1289 pi_d_a8_a5_proc_0 + 2579 pi_d_a5_a9_proc_2
      + 2579 pi_d_a5_a9_proc_0 + 3868 pi_d_a5_a9_proc_1 + 1289 pi_d_a9_a5_proc_1
      + 2579 pi_d_a6_a7_proc_2 + 1290 pi_d_a6_a7_proc_3 + 1290 pi_d_a6_a7_proc_1
      + 2578 pi_d_a7_a6_proc_2 + 1289 pi_d_a7_a6_proc_3 + 1289 pi_d_a7_a6_proc_1
      + 3867 pi_d_a6_a8_proc_2 + 2578 pi_d_a6_a8_proc_3 + 3867 pi_d_a6_a8_proc_0
      + 2578 pi_d_a6_a8_proc_1 + 1290 pi_d_a8_a6_proc_2 + pi_d_a8_a6_proc_3
      + 1290 pi_d_a8_a6_proc_0 + pi_d_a8_a6_proc_1 + 3867 pi_d_a6_a9_proc_2
      + 2578 pi_d_a6_a9_proc_3 + 2578 pi_d_a6_a9_proc_0 + 3867 pi_d_a6_a9_proc_1
      + 1290 pi_d_a9_a6_proc_2 + pi_d_a9_a6_proc_3 + pi_d_a9_a6_proc_0
      + 1290 pi_d_a9_a6_proc_1 + 2578 pi_d_a7_a8_proc_2 + 2578 pi_d_a7_a8_proc_3
      + 2579 pi_d_a8_a7_proc_2 + 2579 pi_d_a8_a7_proc_3 + pi_d_a8_a7_proc_1
      + 3867 pi_d_a7_a9_proc_2 + 3867 pi_d_a7_a9_proc_3 + 2578 pi_d_a7_a9_proc_1
      + 1290 pi_d_a9_a7_proc_2 + 1290 pi_d_a9_a7_proc_3 + pi_d_a9_a7_proc_1
      + 3867 pi_d_a8_a9_proc_2 + 3867 pi_d_a8_a9_proc_3 + 2578 pi_d_a8_a9_proc_0
      + 2578 pi_d_a8_a9_proc_1 + 1290 pi_d_a9_a8_proc_2 + 1290 pi_d_a9_a8_proc_3
      + pi_d_a9_a8_proc_0 + pi_d_a9_a8_proc_1 + pi_y2_a0_proc_3
      + pi_y2_a1_proc_2 + pi_y2_a2_proc_0 + pi_y2_a3_proc_3 + pi_y2_a4_proc_2
      + pi_y2_a5_proc_2 + pi_y2_a6_proc_3 + pi_y2_a7_proc_1 + pi_y2_a8_proc_1
      + pi_y2_a9_proc_0
Subject To
 c1: pi_nr_a0 + pi_nr_a1 + pi_nr_a2 + pi_nr_a3 + pi_nr_a4 + pi_nr_a5 + pi_nr_a6
     + pi_nr_a7 + pi_nr_a8 + pi_nr_a9 - pi_y1_a0 - pi_y1_a1 - pi_y1_a2
     - pi_y1_a3 - pi_y1_a4 - pi_y1_a5 - pi_y1_a6 - pi_y1_a7 - pi_y1_a8
     - pi_y1_a9 >= 1
 c2: pi_p_a0_a1 - pi_p_a2_a0 + pi_p_a0_a6 + pi_d_a0_a1_proc_2
     + pi_d_a0_a1_proc_3 + pi_d_a0_a1_proc_1 - pi_d_a1_a0_proc_2
     - pi_d_a1_a0_proc_3 - pi_d_a1_a0_proc_1 + pi_d_a0_a2_proc_2
     + pi_d_a0_a2_proc_3 + pi_d_a0_a2_proc_0 + pi_d_a0_a2_proc_1
     - pi_d_a2_a0_proc_2 - pi_d_a2_a0_proc_3 - pi_d_a2_a0_proc_0
     - pi_d_a2_a0_proc_1 + pi_d_a0_a3_proc_3 + pi_d_a0_a3_proc_1
     - pi_d_a3_a0_proc_3 - pi_d_a3_a0_proc_1 + pi_d_a0_a4_proc_2
     + pi_d_a0_a4_proc_3 + pi_d_a0_a4_proc_0 + pi_d_a0_a4_proc_1
     - pi_d_a4_a0_proc_2 - pi_d_a4_a0_proc_3 - pi_d_a4_a0_proc_0
     - pi_d_a4_a0_proc_1 + pi_d_a0_a5_proc_2 + pi_d_a0_a5_proc_0
     + pi_d_a0_a5_proc_1 - pi_d_a5_a0_proc_2 - pi_d_a5_a0_proc_0
     - pi_d_a5_a0_proc_1 + pi_d_a0_a6_proc_2 + pi_d_a0_a6_proc_3
     + pi_d_a0_a6_proc_0 + pi_d_a0_a6_proc_1 - pi_d_a6_a0_proc_2
     - pi_d_a6_a0_proc_3 - pi_d_a6_a0_proc_0 - pi_d_a6_a0_proc_1
     + pi_d_a0_a7_proc_2 + pi_d_a0_a7_proc_3 + pi_d_a0_a7_proc_1
     - pi_d_a7_a0_proc_2 - pi_d_a7_a0_proc_3 - pi_d_a7_a0_proc_1
     + pi_d_a0_a8_proc_2 + pi_d_a0_a8_proc_3 + pi_d_a0_a8_proc_0
     + pi_d_a0_a8_proc_1 - pi_d_a8_a0_proc_2 - pi_d_a8_a0_proc_3
     - pi_d_a8_a0_proc_0 - pi_d_a8_a0_proc_1 + pi_d_a0_a9_proc_2
     + pi_d_a0_a9_proc_3 + pi_d_a0_a9_proc_0 + pi_d_a0_a9_proc_1
     - pi_d_a9_a0_proc_2 - pi_d_a9_a0_proc_3 - pi_d_a9_a0_proc_0
     - pi_d_a9_a0_proc_1 >= 0
 c3: 908 pi_p_a0_a1 + 908 pi_p_a0_a6 + 908 pi_d_a0_a2_proc_0
     + 908 pi_d_a0_a4_proc_0 + 908 pi_d_a0_a5_proc_0 + 908 pi_d_a0_a6_proc_0
     + 908 pi_d_a0_a8_proc_0 + 908 pi_d_a0_a9_proc_0 + pi_y1_a0
     + pi_y2_a0_proc_0 >= 0
 c4: 1094 pi_p_a0_a1 + 1094 pi_p_a0_a6 + 1094 pi_d_a0_a1_proc_1
     + 1094 pi_d_a0_a2_proc_1 + 1094 pi_d_a0_a3_proc_1 + 1094 pi_d_a0_a4_proc_1
     + 1094 pi_d_a0_a5_proc_1 + 1094 pi_d_a0_a6_proc_1 + 1094 pi_d_a0_a7_proc_1
     + 1094 pi_d_a0_a8_proc_1 + 1094 pi_d_a0_a9_proc_1 + pi_y1_a0
     + pi_y2_a0_proc_1 >= 0
 c5: 1054 pi_p_a0_a1 + 1054 pi_p_a0_a6 + 1054 pi_d_a0_a1_proc_2
     + 1054 pi_d_a0_a2_proc_2 + 1054 pi_d_a0_a4_proc_2 + 1054 pi_d_a0_a5_proc_2
     + 1054 pi_d_a0_a6_proc_2 + 1054 pi_d_a0_a7_proc_2 + 1054 pi_d_a0_a8_proc_2
     + 1054 pi_d_a0_a9_proc_2 + pi_y1_a0 + pi_y2_a0_proc_2 >= 0
 c6: 461 pi_p_a0_a1 + 461 pi_p_a0_a6 + 461 pi_d_a0_a1_proc_3
     + 461 pi_d_a0_a2_proc_3 + 461 pi_d_a0_a3_proc_3 + 461 pi_d_a0_a4_proc_3
     + 461 pi_d_a0_a6_proc_3 + 461 pi_d_a0_a7_proc_3 + 461 pi_d_a0_a8_proc_3
     + 461 pi_d_a0_a9_proc_3 + pi_y1_a0 + pi_y2_a0_proc_3 >= 0
 c7: - pi_p_a0_a1 + pi_p_a1_a8 - pi_p_a3_a1 + pi_p_a1_a7 - pi_d_a0_a1_proc_2
     - pi_d_a0_a1_proc_3 - pi_d_a0_a1_proc_1 + pi_d_a1_a0_proc_2
     + pi_d_a1_a0_proc_3 + pi_d_a1_a0_proc_1 + pi_d_a1_a2_proc_2
     + pi_d_a1_a2_proc_3 + pi_d_a1_a2_proc_1 - pi_d_a2_a1_proc_2
     - pi_d_a2_a1_proc_3 - pi_d_a2_a1_proc_1 + pi_d_a1_a3_proc_3
     + pi_d_a1_a3_proc_1 - pi_d_a3_a1_proc_3 - pi_d_a3_a1_proc_1
     + pi_d_a1_a4_proc_2 + pi_d_a1_a4_proc_3 + pi_d_a1_a4_proc_1
     - pi_d_a4_a1_proc_2 - pi_d_a4_a1_proc_3 - pi_d_a4_a1_proc_1
     + pi_d_a1_a5_proc_2 + pi_d_a1_a5_proc_1 - pi_d_a5_a1_proc_2
     - pi_d_a5_a1_proc_1 + pi_d_a1_a6_proc_2 + pi_d_a1_a6_proc_3
     + pi_d_a1_a6_proc_1 - pi_d_a6_a1_proc_2 - pi_d_a6_a1_proc_3
     - pi_d_a6_a1_proc_1 + pi_d_a1_a7_proc_2 + pi_d_a1_a7_proc_3
     + pi_d_a1_a7_proc_1 - pi_d_a7_a1_proc_2 - pi_d_a7_a1_proc_3
     - pi_d_a7_a1_proc_1 + pi_d_a1_a8_proc_2 + pi_d_a1_a8_proc_3
     + pi_d_a1_a8_proc_1 - pi_d_a8_a1_proc_2 - pi_d_a8_a1_proc_3
     - pi_d_a8_a1_proc_1 + pi_d_a1_a9_proc_2 + pi_d_a1_a9_proc_3
     + pi_d_a1_a9_proc_1 - pi_d_a9_a1_proc_2 - pi_d_a9_a1_proc_3
     - pi_d_a9_a1_proc_1 >= 0
 c8: 1235 pi_p_a1_a8 + 1235 pi_p_a1_a7 + 1235 pi_d_a1_a0_proc_1
     + 1235 pi_d_a1_a2_proc_1 + 1235 pi_d_a1_a3_proc_1 + 1235 pi_d_a1_a4_proc_1
     + 1235 pi_d_a1_a5_proc_1 + 1235 pi_d_a1_a6_proc_1 + 1235 pi_d_a1_a7_proc_1
     + 1235 pi_d_a1_a8_proc_1 + 1235 pi_d_a1_a9_proc_1 + pi_y1_a1
     + pi_y2_a1_proc_1 >= 0
 c9: 659 pi_p_a1_a8 + 659 pi_p_a1_a7 + 659 pi_d_a1_a0_proc_2
     + 659 pi_d_a1_a2_proc_2 + 659 pi_d_a1_a4_proc_2 + 659 pi_d_a1_a5_proc_2
     + 659 pi_d_a1_a6_proc_2 + 659 pi_d_a1_a7_proc_2 + 659 pi_d_a1_a8_proc_2
     + 659 pi_d_a1_a9_proc_2 + pi_y1_a1 + pi_y2_a1_proc_2 >= 0
 c10: 678 pi_p_a1_a8 + 678 pi_p_a1_a7 + 678 pi_d_a1_a0_proc_3
      + 678 pi_d_a1_a2_proc_3 + 678 pi_d_a1_a3_proc_3 + 678 pi_d_a1_a4_proc_3
      + 678 pi_d_a1_a6_proc_3 + 678 pi_d_a1_a7_proc_3 + 678 pi_d_a1_a8_proc_3
      + 678 pi_d_a1_a9_proc_3 + pi_y1_a1 + pi_y2_a1_proc_3 >= 0
 c11: pi_p_a2_a0 + pi_p_a2_a3 - pi_p_a6_a2 - pi_p_a8_a2 + pi_p_a2_a4
      - pi_p_a7_a2 - pi_d_a0_a2_proc_2 - pi_d_a0_a2_proc_3 - pi_d_a0_a2_proc_0
      - pi_d_a0_a2_proc_1 + pi_d_a2_a0_proc_2 + pi_d_a2_a0_proc_3
      + pi_d_a2_a0_proc_0 + pi_d_a2_a0_proc_1 - pi_d_a1_a2_proc_2
      - pi_d_a1_a2_proc_3 - pi_d_a1_a2_proc_1 + pi_d_a2_a1_proc_2
      + pi_d_a2_a1_proc_3 + pi_d_a2_a1_proc_1 + pi_d_a2_a3_proc_3
      + pi_d_a2_a3_proc_1 - pi_d_a3_a2_proc_3 - pi_d_a3_a2_proc_1
      + pi_d_a2_a4_proc_2 + pi_d_a2_a4_proc_3 + pi_d_a2_a4_proc_0
      + pi_d_a2_a4_proc_1 - pi_d_a4_a2_proc_2 - pi_d_a4_a2_proc_3
      - pi_d_a4_a2_proc_0 - pi_d_a4_a2_proc_1 + pi_d_a2_a5_proc_2
      + pi_d_a2_a5_proc_0 + pi_d_a2_a5_proc_1 - pi_d_a5_a2_proc_2
      - pi_d_a5_a2_proc_0 - pi_d_a5_a2_proc_1 + pi_d_a2_a6_proc_2
      + pi_d_a2_a6_proc_3 + pi_d_a2_a6_proc_0 + pi_d_a2_a6_proc_1
      - pi_d_a6_a2_proc_2 - pi_d_a6_a2_proc_3 - pi_d_a6_a2_proc_0
      - pi_d_a6_a2_proc_1 + pi_d_a2_a7_proc_2 + pi_d_a2_a7_proc_3
      + pi_d_a2_a7_proc_1 - pi_d_a7_a2_proc_2 - pi_d_a7_a2_proc_3
      - pi_d_a7_a2_proc_1 + pi_d_a2_a8_proc_2 + pi_d_a2_a8_proc_3
      + pi_d_a2_a8_proc_0 + pi_d_a2_a8_proc_1 - pi_d_a8_a2_proc_2
      - pi_d_a8_a2_proc_3 - pi_d_a8_a2_proc_0 - pi_d_a8_a2_proc_1
      + pi_d_a2_a9_proc_2 + pi_d_a2_a9_proc_3 + pi_d_a2_a9_proc_0
      + pi_d_a2_a9_proc_1 - pi_d_a9_a2_proc_2 - pi_d_a9_a2_proc_3
      - pi_d_a9_a2_proc_0 - pi_d_a9_a2_proc_1 >= 0
 c12: 683 pi_p_a2_a0 + 683 pi_p_a2_a3 + 683 pi_p_a2_a4 + 683 pi_d_a2_a0_proc_0
      + 683 pi_d_a2_a4_proc_0 + 683 pi_d_a2_a5_proc_0 + 683 pi_d_a2_a6_proc_0
      + 683 pi_d_a2_a8_proc_0 + 683 pi_d_a2_a9_proc_0 + pi_y1_a2
      + pi_y2_a2_proc_0 >= 0
 c13: 1100 pi_p_a2_a0 + 1100 pi_p_a2_a3 + 1100 pi_p_a2_a4
      + 1100 pi_d_a2_a0_proc_1 + 1100 pi_d_a2_a1_proc_1 + 1100 pi_d_a2_a3_proc_1
      + 1100 pi_d_a2_a4_proc_1 + 1100 pi_d_a2_a5_proc_1 + 1100 pi_d_a2_a6_proc_1
      + 1100 pi_d_a2_a7_proc_1 + 1100 pi_d_a2_a8_proc_1 + 1100 pi_d_a2_a9_proc_1
      + pi_y1_a2 + pi_y2_a2_proc_1 >= 0
 c14: 861 pi_p_a2_a0 + 861 pi_p_a2_a3 + 861 pi_p_a2_a4 + 861 pi_d_a2_a0_proc_2
      + 861 pi_d_a2_a1_proc_2 + 861 pi_d_a2_a4_proc_2 + 861 pi_d_a2_a5_proc_2
      + 861 pi_d_a2_a6_proc_2 + 861 pi_d_a2_a7_proc_2 + 861 pi_d_a2_a8_proc_2
      + 861 pi_d_a2_a9_proc_2 + pi_y1_a2 + pi_y2_a2_proc_2 >= 0
 c15: 1289 pi_p_a2_a0 + 1289 pi_p_a2_a3 + 1289 pi_p_a2_a4
      + 1289 pi_d_a2_a0_proc_3 + 1289 pi_d_a2_a1_proc_3 + 1289 pi_d_a2_a3_proc_3
      + 1289 pi_d_a2_a4_proc_3 + 1289 pi_d_a2_a6_proc_3 + 1289 pi_d_a2_a7_proc_3
      + 1289 pi_d_a2_a8_proc_3 + 1289 pi_d_a2_a9_proc_3 + pi_y1_a2
      + pi_y2_a2_proc_3 >= 0
 c16: - pi_p_a2_a3 - pi_p_a4_a3 - pi_p_a5_a3 + pi_p_a3_a7 + pi_p_a3_a1
      - pi_d_a0_a3_proc_3 - pi_d_a0_a3_proc_1 + pi_d_a3_a0_proc_3
      + pi_d_a3_a0_proc_1 - pi_d_a1_a3_proc_3 - pi_d_a1_a3_proc_1
      + pi_d_a3_a1_proc_3 + pi_d_a3_a1_proc_1 - pi_d_a2_a3_proc_3
      - pi_d_a2_a3_proc_1 + pi_d_a3_a2_proc_3 + pi_d_a3_a2_proc_1
      + pi_d_a3_a4_proc_3 + pi_d_a3_a4_proc_1 - pi_d_a4_a3_proc_3
      - pi_d_a4_a3_proc_1 + pi_d_a3_a5_proc_1 - pi_d_a5_a3_proc_1
      + pi_d_a3_a6_proc_3 + pi_d_a3_a6_proc_1 - pi_d_a6_a3_proc_3
      - pi_d_a6_a3_proc_1 + pi_d_a3_a7_proc_3 + pi_d_a3_a7_proc_1
      - pi_d_a7_a3_proc_3 - pi_d_a7_a3_proc_1 + pi_d_a3_a8_proc_3
      + pi_d_a3_a8_proc_1 - pi_d_a8_a3_proc_3 - pi_d_a8_a3_proc_1
      + pi_d_a3_a9_proc_3 + pi_d_a3_a9_proc_1 - pi_d_a9_a3_proc_3
      - pi_d_a9_a3_proc_1 >= 0
 c17: 793 pi_p_a3_a7 + 793 pi_p_a3_a1 + 793 pi_d_a3_a0_proc_1
      + 793 pi_d_a3_a1_proc_1 + 793 pi_d_a3_a2_proc_1 + 793 pi_d_a3_a4_proc_1
      + 793 pi_d_a3_a5_proc_1 + 793 pi_d_a3_a6_proc_1 + 793 pi_d_a3_a7_proc_1
      + 793 pi_d_a3_a8_proc_1 + 793 pi_d_a3_a9_proc_1 + pi_y1_a3
      + pi_y2_a3_proc_1 >= 0
 c18: 738 pi_p_a3_a7 + 738 pi_p_a3_a1 + 738 pi_d_a3_a0_proc_3
      + 738 pi_d_a3_a1_proc_3 + 738 pi_d_a3_a2_proc_3 + 738 pi_d_a3_a4_proc_3
      + 738 pi_d_a3_a6_proc_3 + 738 pi_d_a3_a7_proc_3 + 738 pi_d_a3_a8_proc_3
      + 738 pi_d_a3_a9_proc_3 + pi_y1_a3 + pi_y2_a3_proc_3 >= 0
 c19: pi_p_a4_a3 + pi_p_a4_a5 - pi_p_a2_a4 - pi_d_a0_a4_proc_2
      - pi_d_a0_a4_proc_3 - pi_d_a0_a4_proc_0 - pi_d_a0_a4_proc_1
      + pi_d_a4_a0_proc_2 + pi_d_a4_a0_proc_3 + pi_d_a4_a0_proc_0
      + pi_d_a4_a0_proc_1 - pi_d_a1_a4_proc_2 - pi_d_a1_a4_proc_3
      - pi_d_a1_a4_proc_1 + pi_d_a4_a1_proc_2 + pi_d_a4_a1_proc_3
      + pi_d_a4_a1_proc_1 - pi_d_a2_a4_proc_2 - pi_d_a2_a4_proc_3
      - pi_d_a2_a4_proc_0 - pi_d_a2_a4_proc_1 + pi_d_a4_a2_proc_2
      + pi_d_a4_a2_proc_3 + pi_d_a4_a2_proc_0 + pi_d_a4_a2_proc_1
      - pi_d_a3_a4_proc_3 - pi_d_a3_a4_proc_1 + pi_d_a4_a3_proc_3
      + pi_d_a4_a3_proc_1 + pi_d_a4_a5_proc_2 + pi_d_a4_a5_proc_0
      + pi_d_a4_a5_proc_1 - pi_d_a5_a4_proc_2 - pi_d_a5_a4_proc_0
      - pi_d_a5_a4_proc_1 + pi_d_a4_a6_proc_2 + pi_d_a4_a6_proc_3
      + pi_d_a4_a6_proc_0 + pi_d_a4_a6_proc_1 - pi_d_a6_a4_proc_2
      - pi_d_a6_a4_proc_3 - pi_d_a6_a4_proc_0 - pi_d_a6_a4_proc_1
      + pi_d_a4_a7_proc_2 + pi_d_a4_a7_proc_3 + pi_d_a4_a7_proc_1
      - pi_d_a7_a4_proc_2 - pi_d_a7_a4_proc_3 - pi_d_a7_a4_proc_1
      + pi_d_a4_a8_proc_2 + pi_d_a4_a8_proc_3 + pi_d_a4_a8_proc_0
      + pi_d_a4_a8_proc_1 - pi_d_a8_a4_proc_2 - pi_d_a8_a4_proc_3
      - pi_d_a8_a4_proc_0 - pi_d_a8_a4_proc_1 + pi_d_a4_a9_proc_2
      + pi_d_a4_a9_proc_3 + pi_d_a4_a9_proc_0 + pi_d_a4_a9_proc_1
      - pi_d_a9_a4_proc_2 - pi_d_a9_a4_proc_3 - pi_d_a9_a4_proc_0
      - pi_d_a9_a4_proc_1 >= 0
 c20: 948 pi_p_a4_a3 + 948 pi_p_a4_a5 + 948 pi_d_a4_a0_proc_0
      + 948 pi_d_a4_a2_proc_0 + 948 pi_d_a4_a5_proc_0 + 948 pi_d_a4_a6_proc_0
      + 948 pi_d_a4_a8_proc_0 + 948 pi_d_a4_a9_proc_0 + pi_y1_a4
      + pi_y2_a4_proc_0 >= 0
 c21: 1042 pi_p_a4_a3 + 1042 pi_p_a4_a5 + 1042 pi_d_a4_a0_proc_1
      + 1042 pi_d_a4_a1_proc_1 + 1042 pi_d_a4_a2_proc_1 + 1042 pi_d_a4_a3_proc_1
      + 1042 pi_d_a4_a5_proc_1 + 1042 pi_d_a4_a6_proc_1 + 1042 pi_d_a4_a7_proc_1
      + 1042 pi_d_a4_a8_proc_1 + 1042 pi_d_a4_a9_proc_1 + pi_y1_a4
      + pi_y2_a4_proc_1 >= 0
 c22: 809 pi_p_a4_a3 + 809 pi_p_a4_a5 + 809 pi_d_a4_a0_proc_2
      + 809 pi_d_a4_a1_proc_2 + 809 pi_d_a4_a2_proc_2 + 809 pi_d_a4_a5_proc_2
      + 809 pi_d_a4_a6_proc_2 + 809 pi_d_a4_a7_proc_2 + 809 pi_d_a4_a8_proc_2
      + 809 pi_d_a4_a9_proc_2 + pi_y1_a4 + pi_y2_a4_proc_2 >= 0
 c23: 1227 pi_p_a4_a3 + 1227 pi_p_a4_a5 + 1227 pi_d_a4_a0_proc_3
      + 1227 pi_d_a4_a1_proc_3 + 1227 pi_d_a4_a2_proc_3 + 1227 pi_d_a4_a3_proc_3
      + 1227 pi_d_a4_a6_proc_3 + 1227 pi_d_a4_a7_proc_3 + 1227 pi_d_a4_a8_proc_3
      + 1227 pi_d_a4_a9_proc_3 + pi_y1_a4 + pi_y2_a4_proc_3 >= 0
 c24: pi_p_a5_a3 - pi_p_a4_a5 - pi_d_a0_a5_proc_2 - pi_d_a0_a5_proc_0
      - pi_d_a0_a5_proc_1 + pi_d_a5_a0_proc_2 + pi_d_a5_a0_proc_0
      + pi_d_a5_a0_proc_1 - pi_d_a1_a5_proc_2 - pi_d_a1_a5_proc_1
      + pi_d_a5_a1_proc_2 + pi_d_a5_a1_proc_1 - pi_d_a2_a5_proc_2
      - pi_d_a2_a5_proc_0 - pi_d_a2_a5_proc_1 + pi_d_a5_a2_proc_2
      + pi_d_a5_a2_proc_0 + pi_d_a5_a2_proc_1 - pi_d_a3_a5_proc_1
      + pi_d_a5_a3_proc_1 - pi_d_a4_a5_proc_2 - pi_d_a4_a5_proc_0
      - pi_d_a4_a5_proc_1 + pi_d_a5_a4_proc_2 + pi_d_a5_a4_proc_0
      + pi_d_a5_a4_proc_1 + pi_d_a5_a6_proc_2 + pi_d_a5_a6_proc_0
      + pi_d_a5_a6_proc_1 - pi_d_a6_a5_proc_2 - pi_d_a6_a5_proc_0
      - pi_d_a6_a5_proc_1 + pi_d_a5_a7_proc_2 + pi_d_a5_a7_proc_1
      - pi_d_a7_a5_proc_2 - pi_d_a7_a5_proc_1 + pi_d_a5_a8_proc_2
      + pi_d_a5_a8_proc_0 + pi_d_a5_a8_proc_1 - pi_d_a8_a5_proc_2
      - pi_d_a8_a5_proc_0 - pi_d_a8_a5_proc_1 + pi_d_a5_a9_proc_2
      + pi_d_a5_a9_proc_0 + pi_d_a5_a9_proc_1 - pi_d_a9_a5_proc_2
      - pi_d_a9_a5_proc_0 - pi_d_a9_a5_proc_1 >= 0
 c25: 1152 pi_p_a5_a3 + 1152 pi_d_a5_a0_proc_0 + 1152 pi_d_a5_a2_proc_0
      + 1152 pi_d_a5_a4_proc_0 + 1152 pi_d_a5_a6_proc_0 + 1152 pi_d_a5_a8_proc_0
      + 1152 pi_d_a5_a9_proc_0 + pi_y1_a5 + pi_y2_a5_proc_0 >= 0
 c26: 873 pi_p_a5_a3 + 873 pi_d_a5_a0_proc_1 + 873 pi_d_a5_a1_proc_1
      + 873 pi_d_a5_a2_proc_1 + 873 pi_d_a5_a3_proc_1 + 873 pi_d_a5_a4_proc_1
      + 873 pi_d_a5_a6_proc_1 + 873 pi_d_a5_a7_proc_1 + 873 pi_d_a5_a8_proc_1
      + 873 pi_d_a5_a9_proc_1 + pi_y1_a5 + pi_y2_a5_proc_1 >= 0
 c27: 865 pi_p_a5_a3 + 865 pi_d_a5_a0_proc_2 + 865 pi_d_a5_a1_proc_2
      + 865 pi_d_a5_a2_proc_2 + 865 pi_d_a5_a4_proc_2 + 865 pi_d_a5_a6_proc_2
      + 865 pi_d_a5_a7_proc_2 + 865 pi_d_a5_a8_proc_2 + 865 pi_d_a5_a9_proc_2
      + pi_y1_a5 + pi_y2_a5_proc_2 >= 0
 c28: pi_p_a6_a2 - pi_p_a9_a6 - pi_p_a0_a6 - pi_d_a0_a6_proc_2
      - pi_d_a0_a6_proc_3 - pi_d_a0_a6_proc_0 - pi_d_a0_a6_proc_1
      + pi_d_a6_a0_proc_2 + pi_d_a6_a0_proc_3 + pi_d_a6_a0_proc_0
      + pi_d_a6_a0_proc_1 - pi_d_a1_a6_proc_2 - pi_d_a1_a6_proc_3
      - pi_d_a1_a6_proc_1 + pi_d_a6_a1_proc_2 + pi_d_a6_a1_proc_3
      + pi_d_a6_a1_proc_1 - pi_d_a2_a6_proc_2 - pi_d_a2_a6_proc_3
      - pi_d_a2_a6_proc_0 - pi_d_a2_a6_proc_1 + pi_d_a6_a2_proc_2
      + pi_d_a6_a2_proc_3 + pi_d_a6_a2_proc_0 + pi_d_a6_a2_proc_1
      - pi_d_a3_a6_proc_3 - pi_d_a3_a6_proc_1 + pi_d_a6_a3_proc_3
      + pi_d_a6_a3_proc_1 - pi_d_a4_a6_proc_2 - pi_d_a4_a6_proc_3
      - pi_d_a4_a6_proc_0 - pi_d_a4_a6_proc_1 + pi_d_a6_a4_proc_2
      + pi_d_a6_a4_proc_3 + pi_d_a6_a4_proc_0 + pi_d_a6_a4_proc_1
      - pi_d_a5_a6_proc_2 - pi_d_a5_a6_proc_0 - pi_d_a5_a6_proc_1
      + pi_d_a6_a5_proc_2 + pi_d_a6_a5_proc_0 + pi_d_a6_a5_proc_1
      + pi_d_a6_a7_proc_2 + pi_d_a6_a7_proc_3 + pi_d_a6_a7_proc_1
      - pi_d_a7_a6_proc_2 - pi_d_a7_a6_proc_3 - pi_d_a7_a6_proc_1
      + pi_d_a6_a8_proc_2 + pi_d_a6_a8_proc_3 + pi_d_a6_a8_proc_0
      + pi_d_a6_a8_proc_1 - pi_d_a8_a6_proc_2 - pi_d_a8_a6_proc_3
      - pi_d_a8_a6_proc_0 - pi_d_a8_a6_proc_1 + pi_d_a6_a9_proc_2
      + pi_d_a6_a9_proc_3 + pi_d_a6_a9_proc_0 + pi_d_a6_a9_proc_1
      - pi_d_a9_a6_proc_2 - pi_d_a9_a6_proc_3 - pi_d_a9_a6_proc_0
      - pi_d_a9_a6_proc_1 >= 0
 c29: 710 pi_p_a6_a2 + 710 pi_d_a6_a0_proc_0 + 710 pi_d_a6_a2_proc_0
      + 710 pi_d_a6_a4_proc_0 + 710 pi_d_a6_a5_proc_0 + 710 pi_d_a6_a8_proc_0
      + 710 pi_d_a6_a9_proc_0 + pi_y1_a6 + pi_y2_a6_proc_0 >= 0
 c30: 1026 pi_p_a6_a2 + 1026 pi_d_a6_a0_proc_1 + 1026 pi_d_a6_a1_proc_1
      + 1026 pi_d_a6_a2_proc_1 + 1026 pi_d_a6_a3_proc_1 + 1026 pi_d_a6_a4_proc_1
      + 1026 pi_d_a6_a5_proc_1 + 1026 pi_d_a6_a7_proc_1 + 1026 pi_d_a6_a8_proc_1
      + 1026 pi_d_a6_a9_proc_1 + pi_y1_a6 + pi_y2_a6_proc_1 >= 0
 c31: 952 pi_p_a6_a2 + 952 pi_d_a6_a0_proc_2 + 952 pi_d_a6_a1_proc_2
      + 952 pi_d_a6_a2_proc_2 + 952 pi_d_a6_a4_proc_2 + 952 pi_d_a6_a5_proc_2
      + 952 pi_d_a6_a7_proc_2 + 952 pi_d_a6_a8_proc_2 + 952 pi_d_a6_a9_proc_2
      + pi_y1_a6 + pi_y2_a6_proc_2 >= 0
 c32: 688 pi_p_a6_a2 + 688 pi_d_a6_a0_proc_3 + 688 pi_d_a6_a1_proc_3
      + 688 pi_d_a6_a2_proc_3 + 688 pi_d_a6_a3_proc_3 + 688 pi_d_a6_a4_proc_3
      + 688 pi_d_a6_a7_proc_3 + 688 pi_d_a6_a8_proc_3 + 688 pi_d_a6_a9_proc_3
      + pi_y1_a6 + pi_y2_a6_proc_3 >= 0
 c33: - pi_p_a3_a7 + pi_p_a7_a9 + pi_p_a7_a2 - pi_p_a1_a7 - pi_d_a0_a7_proc_2
      - pi_d_a0_a7_proc_3 - pi_d_a0_a7_proc_1 + pi_d_a7_a0_proc_2
      + pi_d_a7_a0_proc_3 + pi_d_a7_a0_proc_1 - pi_d_a1_a7_proc_2
      - pi_d_a1_a7_proc_3 - pi_d_a1_a7_proc_1 + pi_d_a7_a1_proc_2
      + pi_d_a7_a1_proc_3 + pi_d_a7_a1_proc_1 - pi_d_a2_a7_proc_2
      - pi_d_a2_a7_proc_3 - pi_d_a2_a7_proc_1 + pi_d_a7_a2_proc_2
      + pi_d_a7_a2_proc_3 + pi_d_a7_a2_proc_1 - pi_d_a3_a7_proc_3
      - pi_d_a3_a7_proc_1 + pi_d_a7_a3_proc_3 + pi_d_a7_a3_proc_1
      - pi_d_a4_a7_proc_2 - pi_d_a4_a7_proc_3 - pi_d_a4_a7_proc_1
      + pi_d_a7_a4_proc_2 + pi_d_a7_a4_proc_3 + pi_d_a7_a4_proc_1
      - pi_d_a5_a7_proc_2 - pi_d_a5_a7_proc_1 + pi_d_a7_a5_proc_2
      + pi_d_a7_a5_proc_1 - pi_d_a6_a7_proc_2 - pi_d_a6_a7_proc_3
      - pi_d_a6_a7_proc_1 + pi_d_a7_a6_proc_2 + pi_d_a7_a6_proc_3
      + pi_d_a7_a6_proc_1 + pi_d_a7_a8_proc_2 + pi_d_a7_a8_proc_3
      + pi_d_a7_a8_proc_1 - pi_d_a8_a7_proc_2 - pi_d_a8_a7_proc_3
      - pi_d_a8_a7_proc_1 + pi_d_a7_a9_proc_2 + pi_d_a7_a9_proc_3
      + pi_d_a7_a9_proc_1 - pi_d_a9_a7_proc_2 - pi_d_a9_a7_proc_3
      - pi_d_a9_a7_proc_1 >= 0
 c34: 594 pi_p_a7_a9 + 594 pi_p_a7_a2 + 594 pi_d_a7_a0_proc_1
      + 594 pi_d_a7_a1_proc_1 + 594 pi_d_a7_a2_proc_1 + 594 pi_d_a7_a3_proc_1
      + 594 pi_d_a7_a4_proc_1 + 594 pi_d_a7_a5_proc_1 + 594 pi_d_a7_a6_proc_1
      + 594 pi_d_a7_a8_proc_1 + 594 pi_d_a7_a9_proc_1 + pi_y1_a7
      + pi_y2_a7_proc_1 >= 0
 c35: 738 pi_p_a7_a9 + 738 pi_p_a7_a2 + 738 pi_d_a7_a0_proc_2
      + 738 pi_d_a7_a1_proc_2 + 738 pi_d_a7_a2_proc_2 + 738 pi_d_a7_a4_proc_2
      + 738 pi_d_a7_a5_proc_2 + 738 pi_d_a7_a6_proc_2 + 738 pi_d_a7_a8_proc_2
      + 738 pi_d_a7_a9_proc_2 + pi_y1_a7 + pi_y2_a7_proc_2 >= 0
 c36: 790 pi_p_a7_a9 + 790 pi_p_a7_a2 + 790 pi_d_a7_a0_proc_3
      + 790 pi_d_a7_a1_proc_3 + 790 pi_d_a7_a2_proc_3 + 790 pi_d_a7_a3_proc_3
      + 790 pi_d_a7_a4_proc_3 + 790 pi_d_a7_a6_proc_3 + 790 pi_d_a7_a8_proc_3
      + 790 pi_d_a7_a9_proc_3 + pi_y1_a7 + pi_y2_a7_proc_3 >= 0
 c37: - pi_p_a1_a8 + pi_p_a8_a2 - pi_d_a0_a8_proc_2 - pi_d_a0_a8_proc_3
      - pi_d_a0_a8_proc_0 - pi_d_a0_a8_proc_1 + pi_d_a8_a0_proc_2
      + pi_d_a8_a0_proc_3 + pi_d_a8_a0_proc_0 + pi_d_a8_a0_proc_1
      - pi_d_a1_a8_proc_2 - pi_d_a1_a8_proc_3 - pi_d_a1_a8_proc_1
      + pi_d_a8_a1_proc_2 + pi_d_a8_a1_proc_3 + pi_d_a8_a1_proc_1
      - pi_d_a2_a8_proc_2 - pi_d_a2_a8_proc_3 - pi_d_a2_a8_proc_0
      - pi_d_a2_a8_proc_1 + pi_d_a8_a2_proc_2 + pi_d_a8_a2_proc_3
      + pi_d_a8_a2_proc_0 + pi_d_a8_a2_proc_1 - pi_d_a3_a8_proc_3
      - pi_d_a3_a8_proc_1 + pi_d_a8_a3_proc_3 + pi_d_a8_a3_proc_1
      - pi_d_a4_a8_proc_2 - pi_d_a4_a8_proc_3 - pi_d_a4_a8_proc_0
      - pi_d_a4_a8_proc_1 + pi_d_a8_a4_proc_2 + pi_d_a8_a4_proc_3
      + pi_d_a8_a4_proc_0 + pi_d_a8_a4_proc_1 - pi_d_a5_a8_proc_2
      - pi_d_a5_a8_proc_0 - pi_d_a5_a8_proc_1 + pi_d_a8_a5_proc_2
      + pi_d_a8_a5_proc_0 + pi_d_a8_a5_proc_1 - pi_d_a6_a8_proc_2
      - pi_d_a6_a8_proc_3 - pi_d_a6_a8_proc_0 - pi_d_a6_a8_proc_1
      + pi_d_a8_a6_proc_2 + pi_d_a8_a6_proc_3 + pi_d_a8_a6_proc_0
      + pi_d_a8_a6_proc_1 - pi_d_a7_a8_proc_2 - pi_d_a7_a8_proc_3
      - pi_d_a7_a8_proc_1 + pi_d_a8_a7_proc_2 + pi_d_a8_a7_proc_3
      + pi_d_a8_a7_proc_1 + pi_d_a8_a9_proc_2 + pi_d_a8_a9_proc_3
      + pi_d_a8_a9_proc_0 + pi_d_a8_a9_proc_1 - pi_d_a9_a8_proc_2
      - pi_d_a9_a8_proc_3 - pi_d_a9_a8_proc_0 - pi_d_a9_a8_proc_1 >= 0
 c38: 852 pi_p_a8_a2 + 852 pi_d_a8_a0_proc_0 + 852 pi_d_a8_a2_proc_0
      + 852 pi_d_a8_a4_proc_0 + 852 pi_d_a8_a5_proc_0 + 852 pi_d_a8_a6_proc_0
      + 852 pi_d_a8_a9_proc_0 + pi_y1_a8 + pi_y2_a8_proc_0 >= 0
 c39: 753 pi_p_a8_a2 + 753 pi_d_a8_a0_proc_1 + 753 pi_d_a8_a1_proc_1
      + 753 pi_d_a8_a2_proc_1 + 753 pi_d_a8_a3_proc_1 + 753 pi_d_a8_a4_proc_1
      + 753 pi_d_a8_a5_proc_1 + 753 pi_d_a8_a6_proc_1 + 753 pi_d_a8_a7_proc_1
      + 753 pi_d_a8_a9_proc_1 + pi_y1_a8 + pi_y2_a8_proc_1 >= 0
 c40: 875 pi_p_a8_a2 + 875 pi_d_a8_a0_proc_2 + 875 pi_d_a8_a1_proc_2
      + 875 pi_d_a8_a2_proc_2 + 875 pi_d_a8_a4_proc_2 + 875 pi_d_a8_a5_proc_2
      + 875 pi_d_a8_a6_proc_2 + 875 pi_d_a8_a7_proc_2 + 875 pi_d_a8_a9_proc_2
      + pi_y1_a8 + pi_y2_a8_proc_2 >= 0
 c41: 1108 pi_p_a8_a2 + 1108 pi_d_a8_a0_proc_3 + 1108 pi_d_a8_a1_proc_3
      + 1108 pi_d_a8_a2_proc_3 + 1108 pi_d_a8_a3_proc_3 + 1108 pi_d_a8_a4_proc_3
      + 1108 pi_d_a8_a6_proc_3 + 1108 pi_d_a8_a7_proc_3 + 1108 pi_d_a8_a9_proc_3
      + pi_y1_a8 + pi_y2_a8_proc_3 >= 0
 c42: pi_p_a9_a6 - pi_p_a7_a9 - pi_d_a0_a9_proc_2 - pi_d_a0_a9_proc_3
      - pi_d_a0_a9_proc_0 - pi_d_a0_a9_proc_1 + pi_d_a9_a0_proc_2
      + pi_d_a9_a0_proc_3 + pi_d_a9_a0_proc_0 + pi_d_a9_a0_proc_1
      - pi_d_a1_a9_proc_2 - pi_d_a1_a9_proc_3 - pi_d_a1_a9_proc_1
      + pi_d_a9_a1_proc_2 + pi_d_a9_a1_proc_3 + pi_d_a9_a1_proc_1
      - pi_d_a2_a9_proc_2 - pi_d_a2_a9_proc_3 - pi_d_a2_a9_proc_0
      - pi_d_a2_a9_proc_1 + pi_d_a9_a2_proc_2 + pi_d_a9_a2_proc_3
      + pi_d_a9_a2_proc_0 + pi_d_a9_a2_proc_1 - pi_d_a3_a9_proc_3
      - pi_d_a3_a9_proc_1 + pi_d_a9_a3_proc_3 + pi_d_a9_a3_proc_1
      - pi_d_a4_a9_proc_2 - pi_d_a4_a9_proc_3 - pi_d_a4_a9_proc_0
      - pi_d_a4_a9_proc_1 + pi_d_a9_a4_proc_2 + pi_d_a9_a4_proc_3
      + pi_d_a9_a4_proc_0 + pi_d_a9_a4_proc_1 - pi_d_a5_a9_proc_2
      - pi_d_a5_a9_proc_0 - pi_d_a5_a9_proc_1 + pi_d_a9_a5_proc_2
      + pi_d_a9_a5_proc_0 + pi_d_a9_a5_proc_1 - pi_d_a6_a9_proc_2
      - pi_d_a6_a9_proc_3 - pi_d_a6_a9_proc_0 - pi_d_a6_a9_proc_1
      + pi_d_a9_a6_proc_2 + pi_d_a9_a6_proc_3 + pi_d_a9_a6_proc_0
      + pi_d_a9_a6_proc_1 - pi_d_a7_a9_proc_2 - pi_d_a7_a9_proc_3
      - pi_d_a7_a9_proc_1 + pi_d_a9_a7_proc_2 + pi_d_a9_a7_proc_3
      + pi_d_a9_a7_proc_1 - pi_d_a8_a9_proc_2 - pi_d_a8_a9_proc_3
      - pi_d_a8_a9_proc_0 - pi_d_a8_a9_proc_1 + pi_d_a9_a8_proc_2
      + pi_d_a9_a8_proc_3 + pi_d_a9_a8_proc_0 + pi_d_a9_a8_proc_1 >= 0
 c43: 757 pi_p_a9_a6 + 757 pi_p_a9_a9 + 757 pi_d_a9_a0_proc_0
      + 757 pi_d_a9_a2_proc_0 + 757 pi_d_a9_a4_proc_0 + 757 pi_d_a9_a5_proc_0
      + 757 pi_d_a9_a6_proc_0 + 757 pi_d_a9_a8_proc_0 + pi_y1_a9
      + pi_y2_a9_proc_0 >= 0
 c44: 1046 pi_p_a9_a6 + 1046 pi_p_a9_a9 + 1046 pi_d_a9_a0_proc_1
      + 1046 pi_d_a9_a1_proc_1 + 1046 pi_d_a9_a2_proc_1 + 1046 pi_d_a9_a3_proc_1
      + 1046 pi_d_a9_a4_proc_1 + 1046 pi_d_a9_a5_proc_1 + 1046 pi_d_a9_a6_proc_1
      + 1046 pi_d_a9_a7_proc_1 + 1046 pi_d_a9_a8_proc_1 + pi_y1_a9
      + pi_y2_a9_proc_1 >= 0
 c45: 807 pi_p_a9_a6 + 807 pi_p_a9_a9 + 807 pi_d_a9_a0_proc_2
      + 807 pi_d_a9_a1_proc_2 + 807 pi_d_a9_a2_proc_2 + 807 pi_d_a9_a4_proc_2
      + 807 pi_d_a9_a5_proc_2 + 807 pi_d_a9_a6_proc_2 + 807 pi_d_a9_a7_proc_2
      + 807 pi_d_a9_a8_proc_2 + pi_y1_a9 + pi_y2_a9_proc_2 >= 0
 c46: 1032 pi_p_a9_a6 + 1032 pi_p_a9_a9 + 1032 pi_d_a9_a0_proc_3
      + 1032 pi_d_a9_a1_proc_3 + 1032 pi_d_a9_a2_proc_3 + 1032 pi_d_a9_a3_proc_3
      + 1032 pi_d_a9_a4_proc_3 + 1032 pi_d_a9_a6_proc_3 + 1032 pi_d_a9_a7_proc_3
      + 1032 pi_d_a9_a8_proc_3 + pi_y1_a9 + pi_y2_a9_proc_3 >= 0

Bounds
       pi_y1_a0 Free
       pi_y1_a1 Free
       pi_y1_a2 Free
       pi_y1_a3 Free
       pi_y1_a4 Free
       pi_y1_a5 Free
       pi_y1_a6 Free
       pi_y1_a7 Free
       pi_y1_a8 Free
       pi_y1_a9 Free
End
