benchmark/results/graph__10-1000-0.10-04_3/graph__10-1000-0.10-04_3_Quinton_Benders_sub.txt
solution for: Quinton Benders_dual_sub
objective: 0.00019478
status: OPTIMAL_SOLUTION(2)
pi_p_a5_a3=0.000
pi_p_a6_a2=0.000
pi_p_a3_a7=0.000
pi_p_a9_a6=0.000
pi_p_a4_a5=0.000
pi_p_a7_a9=0.000
pi_p_a2_a4=0.000
pi_y1_a2=-0.133
pi_y1_a3=-0.144
pi_y1_a4=-0.158
pi_y1_a5=-0.168
pi_y1_a6=-0.134
pi_y1_a7=-0.116
pi_y1_a9=-0.147
